problem_generation/data/GISP/train/er_n=60_m=1037_p=0.60_SET2_setparam=100.00_alpha=0.50_405.lp
maximize
OBJ:100x0 + 100x1 + 100x2 + 100x3 + 100x4 + 100x5 + 100x6 + 100x7 + 100x8 + 100x9 + 100x10 + 100x11 + 100x12 + 100x13 + 100x14 + 100x15 + 100x16 + 100x17 + 100x18 + 100x19 + 100x20 + 100x21 + 100x22 + 100x23 + 100x24 + 100x25 + 100x26 + 100x27 + 100x28 + 100x29 + 100x30 + 100x31 + 100x32 + 100x33 + 100x34 + 100x35 + 100x36 + 100x37 + 100x38 + 100x39 + 100x40 + 100x41 + 100x42 + 100x43 + 100x44 + 100x45 + 100x46 + 100x47 + 100x48 + 100x49 + 100x50 + 100x51 + 100x52 + 100x53 + 100x54 + 100x55 + 100x56 + 100x57 + 100x58 + 100x59 - y7_17 - y47_53 - y26_30 - y15_39 - y18_35 - y18_44 - y29_41 - y40_41 - y29_50 - y40_50 - y0_23 - y40_59 - y10_27 - y25_34 - y10_54 - y44_56 - y22_28 - y14_24 - y22_46 - y14_42 - y47_48 - y28_53 - y18_30 - y9_58 - y29_36 - y48_49 - y21_32 - y0_9 - y25_38 - y10_58 - y3_19 - y32_55 - y22_32 - y43_55 - y14_28 - y36_52 - y9_44 - y21_27 - y48_53 - y6_47 - y6_56 - y40_58 - y2_13 - y25_33 - y51_54 - y2_49 - y32_50 - y35_46 - y3_23 - y13_55 - y17_25 - y28_34 - y17_43 - y28_43 - y47_56 - y17_52 - y9_48 - y29_35 - y21_31 - y6_42 - y21_40 - y39_48 - y2_8 - y20_53 - y31_53 - y2_26 - y10_39 - y12_58 - y43_45 - y13_41 - y24_41 - y32_54 - y35_41 - y13_50 - y35_50 - y24_59 - y5_36 - y28_38 - y9_34 - y5_54 - y39_43 - y20_39 - y10_16 - y31_48 - y12_44 - y20_57 - y31_57 - y12_53 - y32_40 - y43_49 - y35_45 - y32_58 - y16_41 - y43_58 - y16_50 - y16_59 - y5_22 - y17_24 - y5_31 - y17_42 - y9_38 - y5_49 - y5_58 - y0_56 - y2_7 - y12_39 - y2_16 - y31_52 - y23_48 - y12_57 - y13_22 - y4_53 - y16_18 - y24_31 - y1_38 - y13_40 - y13_49 - y35_58 - y38_51 - y49_51 - y17_37 - y27_50 - y50_52 - y19_46 - y42_48 - y19_55 - y30_55 - y39_51 - y23_34 - y2_11 - y4_30 - y12_43 - y13_26 - y32_39 - y16_22 - y1_33 - y13_35 - y24_35 - y1_42 - y13_44 - y16_49 - y5_12 - y9_10 - y38_46 - y26_53 - y9_28 - y27_45 - y30_41 - y0_46 - y8_59 - y30_59 - y0_55 - y20_33 - y12_29 - y20_42 - y53_57 - y4_52 - y45_53 - y1_28 - y24_30 - y16_26 - y16_35 - y9_14 - y15_48 - y38_50 - y30_36 - y27_49 - y11_32 - y8_45 - y19_45 - y0_41 - y0_50 - y11_50 - y12_15 - y20_28 - y4_11 - y4_20 - y12_42 - y34_39 - y1_14 - y34_48 - y34_57 - y56_57 - y1_32 - y3_51 - y46_49 - y38_54 - y18_48 - y8_13 - y19_31 - y8_40 - y0_36 - y30_49 - y11_45 - y30_58 - y20_23 - y4_6 - y31_32 - y33_51 - y25_56 - y4_33 - y1_9 - y34_43 - y34_52 - y14_46 - y37_48 - y15_20 - y5_6 - y26_38 - y18_34 - y26_47 - y38_49 - y7_43 - y15_56 - y7_52 - y11_13 - y27_39 - y0_22 - y11_31 - y19_44 - y0_40 - y11_40 - y12_14 - y41_59 - y52_59 - y4_28 - y22_45 - y34_47 - y15_24 - y7_29 - y18_29 - y26_42 - y18_38 - y15_51 - y7_56 - y11_17 - y29_53 - y19_30 - y0_26 - y21_58 - y4_5 - y10_57 - y2_53 - y22_31 - y3_27 - y3_36 - y14_36 - y37_56 - y15_19 - y7_15 - y7_42 - y6_55 - y11_21 - y10_34 - y25_32 - y4_9 - y10_43 - y33_45 - y41_58 - y52_58 - y10_52 - y2_57 - y3_22 - y14_22 - y22_44 - y22_53 - y7_10 - y15_23 - y55_59 - y47_55 - y17_51 - y18_37 - y6_41 - y40_43 - y0_16 - y6_59 - y21_57 - y10_20 - y41_44 - y2_25 - y25_27 - y33_49 - y10_56 - y14_17 - y32_53 - y3_26 - y22_39 - y14_35 - y14_44 - y36_41 - y47_50 - y9_42 - y6_27 - y29_38 - y21_34 - y6_45 - y40_47 - y10_24 - y2_29 - y2_47 - y32_48 - y43_48 - y3_21 - y24_53 - y3_30 - y14_30 - y16_58 - y7_9 - y17_41 - y28_41 - y28_50 - y28_59 - y21_29 - y6_40 - y29_42 - y21_38 - y29_51 - y39_55 - y2_33 - y3_7 - y32_43 - y35_48 - y16_44 - y17_27 - y36_40 - y28_36 - y36_49 - y6_8 - y47_58 - y5_52 - y17_54 - y39_50 - y20_55 - y54_57 - y2_28 - y24_34 - y32_56 - y16_48 - y9_18 - y5_29 - y28_31 - y36_44 - y17_49 - y58_59 - y50_55 - y21_28 - y8_58 - y2_14 - y12_46 - y2_23 - y31_59 - y12_55 - y23_55 - y4_51 - y32_33 - y24_29 - y51_55 - y32_51 - y13_47 - y35_47 - y13_56 - y24_56 - y5_24 - y17_26 - y9_22 - y49_58 - y6_25 - y42_46 - y50_59 - y42_55 - y39_40 - y31_36 - y12_41 - y12_50 - y13_15 - y12_59 - y23_59 - y32_37 - y16_20 - y1_31 - y43_46 - y1_40 - y24_42 - y1_49 - y35_51 - y46_48 - y17_21 - y46_57 - y9_17 - y28_30 - y27_34 - y6_20 - y8_39 - y8_48 - y11_44 - y42_59 - y4_23 - y12_45 - y1_8 - y1_17 - y53_55 - y4_50 - y13_28 - y4_59 - y16_33 - y15_46 - y9_21 - y26_55 - y18_51 - y27_29 - y19_43 - y30_43 - y27_56 - y42_45 - y42_54 - y31_35 - y31_44 - y1_3 - y4_36 - y12_49 - y13_23 - y16_19 - y34_55 - y1_39 - y18_46 - y18_55 - y8_20 - y27_33 - y19_29 - y11_25 - y19_38 - y11_34 - y30_56 - y0_52 - y12_17 - y23_26 - y31_39 - y33_58 - y23_35 - y4_31 - y1_7 - y13_18 - y53_54 - y34_50 - y37_46 - y22_57 - y37_55 - y5_13 - y26_45 - y18_41 - y27_28 - y8_24 - y27_37 - y11_20 - y30_33 - y0_29 - y0_38 - y11_38 - y20_25 - y1_2 - y22_34 - y1_20 - y3_39 - y14_39 - y22_52 - y34_54 - y45_54 - y3_48 - y37_59 - y26_31 - y7_27 - y18_36 - y15_49 - y18_45 - y8_28 - y0_24 - y19_37 - y30_37 - y4_12 - y10_55 - y1_6 - y14_34 - y22_47 - y3_43 - y22_56 - y15_17 - y15_26 - y7_22 - y26_35 - y18_40 - y0_1 - y18_49 - y48_50 - y0_10 - y29_46 - y8_23 - y19_23 - y40_46 - y29_55 - y30_32 - y33_34 - y25_30 - y10_41 - y25_39 - y4_16 - y3_29 - y34_44 - y3_38
 Subject to
C1: x0+x1-y0_1 <=1 
C2: x0+x8 <=1 
C3: x0+x9-y0_9 <=1 
C4: x0+x10-y0_10 <=1 
C5: x0+x11 <=1 
C6: x0+x12 <=1 
C7: x0+x13 <=1 
C8: x0+x14 <=1 
C9: x0+x15 <=1 
C10: x0+x16-y0_16 <=1 
C11: x0+x17 <=1 
C12: x0+x18 <=1 
C13: x0+x21 <=1 
C14: x0+x22-y0_22 <=1 
C15: x0+x23-y0_23 <=1 
C16: x0+x24-y0_24 <=1 
C17: x0+x26-y0_26 <=1 
C18: x0+x29-y0_29 <=1 
C19: x0+x31 <=1 
C20: x0+x33 <=1 
C21: x0+x36-y0_36 <=1 
C22: x0+x38-y0_38 <=1 
C23: x0+x39 <=1 
C24: x0+x40-y0_40 <=1 
C25: x0+x41-y0_41 <=1 
C26: x0+x45 <=1 
C27: x0+x46-y0_46 <=1 
C28: x0+x48 <=1 
C29: x0+x50-y0_50 <=1 
C30: x0+x51 <=1 
C31: x0+x52-y0_52 <=1 
C32: x0+x54 <=1 
C33: x0+x55-y0_55 <=1 
C34: x0+x56-y0_56 <=1 
C35: x0+x57 <=1 
C36: x1+x2-y1_2 <=1 
C37: x1+x3-y1_3 <=1 
C38: x1+x4 <=1 
C39: x1+x6-y1_6 <=1 
C40: x1+x7-y1_7 <=1 
C41: x1+x8-y1_8 <=1 
C42: x1+x9-y1_9 <=1 
C43: x1+x10 <=1 
C44: x1+x12 <=1 
C45: x1+x14-y1_14 <=1 
C46: x1+x15 <=1 
C47: x1+x16 <=1 
C48: x1+x17-y1_17 <=1 
C49: x1+x20-y1_20 <=1 
C50: x1+x21 <=1 
C51: x1+x24 <=1 
C52: x1+x27 <=1 
C53: x1+x28-y1_28 <=1 
C54: x1+x30 <=1 
C55: x1+x31-y1_31 <=1 
C56: x1+x32-y1_32 <=1 
C57: x1+x33-y1_33 <=1 
C58: x1+x35 <=1 
C59: x1+x37 <=1 
C60: x1+x38-y1_38 <=1 
C61: x1+x39-y1_39 <=1 
C62: x1+x40-y1_40 <=1 
C63: x1+x41 <=1 
C64: x1+x42-y1_42 <=1 
C65: x1+x43 <=1 
C66: x1+x44 <=1 
C67: x1+x46 <=1 
C68: x1+x49-y1_49 <=1 
C69: x1+x51 <=1 
C70: x1+x52 <=1 
C71: x1+x58 <=1 
C72: x2+x7-y2_7 <=1 
C73: x2+x8-y2_8 <=1 
C74: x2+x11-y2_11 <=1 
C75: x2+x13-y2_13 <=1 
C76: x2+x14-y2_14 <=1 
C77: x2+x16-y2_16 <=1 
C78: x2+x17 <=1 
C79: x2+x20 <=1 
C80: x2+x22 <=1 
C81: x2+x23-y2_23 <=1 
C82: x2+x24 <=1 
C83: x2+x25-y2_25 <=1 
C84: x2+x26-y2_26 <=1 
C85: x2+x28-y2_28 <=1 
C86: x2+x29-y2_29 <=1 
C87: x2+x31 <=1 
C88: x2+x33-y2_33 <=1 
C89: x2+x34 <=1 
C90: x2+x40 <=1 
C91: x2+x41 <=1 
C92: x2+x44 <=1 
C93: x2+x47-y2_47 <=1 
C94: x2+x49-y2_49 <=1 
C95: x2+x53-y2_53 <=1 
C96: x2+x56 <=1 
C97: x2+x57-y2_57 <=1 
C98: x2+x59 <=1 
C99: x3+x7-y3_7 <=1 
C100: x3+x8 <=1 
C101: x3+x13 <=1 
C102: x3+x19-y3_19 <=1 
C103: x3+x21-y3_21 <=1 
C104: x3+x22-y3_22 <=1 
C105: x3+x23-y3_23 <=1 
C106: x3+x26-y3_26 <=1 
C107: x3+x27-y3_27 <=1 
C108: x3+x29-y3_29 <=1 
C109: x3+x30-y3_30 <=1 
C110: x3+x31 <=1 
C111: x3+x32 <=1 
C112: x3+x34 <=1 
C113: x3+x36-y3_36 <=1 
C114: x3+x37 <=1 
C115: x3+x38-y3_38 <=1 
C116: x3+x39-y3_39 <=1 
C117: x3+x43-y3_43 <=1 
C118: x3+x45 <=1 
C119: x3+x46 <=1 
C120: x3+x47 <=1 
C121: x3+x48-y3_48 <=1 
C122: x3+x50 <=1 
C123: x3+x51-y3_51 <=1 
C124: x3+x52 <=1 
C125: x3+x57 <=1 
C126: x4+x5-y4_5 <=1 
C127: x4+x6-y4_6 <=1 
C128: x4+x7 <=1 
C129: x4+x9-y4_9 <=1 
C130: x4+x11-y4_11 <=1 
C131: x4+x12-y4_12 <=1 
C132: x4+x13 <=1 
C133: x4+x16-y4_16 <=1 
C134: x4+x17 <=1 
C135: x4+x19 <=1 
C136: x4+x20-y4_20 <=1 
C137: x4+x21 <=1 
C138: x4+x22 <=1 
C139: x4+x23-y4_23 <=1 
C140: x4+x25 <=1 
C141: x4+x28-y4_28 <=1 
C142: x4+x29 <=1 
C143: x4+x30-y4_30 <=1 
C144: x4+x31-y4_31 <=1 
C145: x4+x33-y4_33 <=1 
C146: x4+x35 <=1 
C147: x4+x36-y4_36 <=1 
C148: x4+x37 <=1 
C149: x4+x39 <=1 
C150: x4+x43 <=1 
C151: x4+x49 <=1 
C152: x4+x50-y4_50 <=1 
C153: x4+x51-y4_51 <=1 
C154: x4+x52-y4_52 <=1 
C155: x4+x53-y4_53 <=1 
C156: x4+x59-y4_59 <=1 
C157: x5+x6-y5_6 <=1 
C158: x5+x9 <=1 
C159: x5+x10 <=1 
C160: x5+x12-y5_12 <=1 
C161: x5+x13-y5_13 <=1 
C162: x5+x16 <=1 
C163: x5+x19 <=1 
C164: x5+x20 <=1 
C165: x5+x21 <=1 
C166: x5+x22-y5_22 <=1 
C167: x5+x24-y5_24 <=1 
C168: x5+x25 <=1 
C169: x5+x27 <=1 
C170: x5+x28 <=1 
C171: x5+x29-y5_29 <=1 
C172: x5+x30 <=1 
C173: x5+x31-y5_31 <=1 
C174: x5+x32 <=1 
C175: x5+x33 <=1 
C176: x5+x36-y5_36 <=1 
C177: x5+x41 <=1 
C178: x5+x47 <=1 
C179: x5+x49-y5_49 <=1 
C180: x5+x50 <=1 
C181: x5+x52-y5_52 <=1 
C182: x5+x54-y5_54 <=1 
C183: x5+x55 <=1 
C184: x5+x57 <=1 
C185: x5+x58-y5_58 <=1 
C186: x6+x8-y6_8 <=1 
C187: x6+x9 <=1 
C188: x6+x11 <=1 
C189: x6+x14 <=1 
C190: x6+x18 <=1 
C191: x6+x19 <=1 
C192: x6+x20-y6_20 <=1 
C193: x6+x24 <=1 
C194: x6+x25-y6_25 <=1 
C195: x6+x27-y6_27 <=1 
C196: x6+x29 <=1 
C197: x6+x30 <=1 
C198: x6+x32 <=1 
C199: x6+x33 <=1 
C200: x6+x35 <=1 
C201: x6+x38 <=1 
C202: x6+x40-y6_40 <=1 
C203: x6+x41-y6_41 <=1 
C204: x6+x42-y6_42 <=1 
C205: x6+x44 <=1 
C206: x6+x45-y6_45 <=1 
C207: x6+x46 <=1 
C208: x6+x47-y6_47 <=1 
C209: x6+x54 <=1 
C210: x6+x55-y6_55 <=1 
C211: x6+x56-y6_56 <=1 
C212: x6+x57 <=1 
C213: x6+x58 <=1 
C214: x6+x59-y6_59 <=1 
C215: x7+x9-y7_9 <=1 
C216: x7+x10-y7_10 <=1 
C217: x7+x11 <=1 
C218: x7+x12 <=1 
C219: x7+x15-y7_15 <=1 
C220: x7+x16 <=1 
C221: x7+x17-y7_17 <=1 
C222: x7+x18 <=1 
C223: x7+x19 <=1 
C224: x7+x21 <=1 
C225: x7+x22-y7_22 <=1 
C226: x7+x23 <=1 
C227: x7+x27-y7_27 <=1 
C228: x7+x29-y7_29 <=1 
C229: x7+x30 <=1 
C230: x7+x32 <=1 
C231: x7+x34 <=1 
C232: x7+x35 <=1 
C233: x7+x37 <=1 
C234: x7+x38 <=1 
C235: x7+x39 <=1 
C236: x7+x42-y7_42 <=1 
C237: x7+x43-y7_43 <=1 
C238: x7+x44 <=1 
C239: x7+x52-y7_52 <=1 
C240: x7+x53 <=1 
C241: x7+x56-y7_56 <=1 
C242: x8+x11 <=1 
C243: x8+x12 <=1 
C244: x8+x13-y8_13 <=1 
C245: x8+x15 <=1 
C246: x8+x17 <=1 
C247: x8+x18 <=1 
C248: x8+x20-y8_20 <=1 
C249: x8+x23-y8_23 <=1 
C250: x8+x24-y8_24 <=1 
C251: x8+x25 <=1 
C252: x8+x26 <=1 
C253: x8+x27 <=1 
C254: x8+x28-y8_28 <=1 
C255: x8+x31 <=1 
C256: x8+x34 <=1 
C257: x8+x35 <=1 
C258: x8+x36 <=1 
C259: x8+x39-y8_39 <=1 
C260: x8+x40-y8_40 <=1 
C261: x8+x42 <=1 
C262: x8+x43 <=1 
C263: x8+x44 <=1 
C264: x8+x45-y8_45 <=1 
C265: x8+x48-y8_48 <=1 
C266: x8+x49 <=1 
C267: x8+x56 <=1 
C268: x8+x58-y8_58 <=1 
C269: x8+x59-y8_59 <=1 
C270: x9+x10-y9_10 <=1 
C271: x9+x11 <=1 
C272: x9+x12 <=1 
C273: x9+x13 <=1 
C274: x9+x14-y9_14 <=1 
C275: x9+x15 <=1 
C276: x9+x17-y9_17 <=1 
C277: x9+x18-y9_18 <=1 
C278: x9+x20 <=1 
C279: x9+x21-y9_21 <=1 
C280: x9+x22-y9_22 <=1 
C281: x9+x23 <=1 
C282: x9+x24 <=1 
C283: x9+x25 <=1 
C284: x9+x26 <=1 
C285: x9+x28-y9_28 <=1 
C286: x9+x29 <=1 
C287: x9+x30 <=1 
C288: x9+x34-y9_34 <=1 
C289: x9+x35 <=1 
C290: x9+x36 <=1 
C291: x9+x37 <=1 
C292: x9+x38-y9_38 <=1 
C293: x9+x40 <=1 
C294: x9+x41 <=1 
C295: x9+x42-y9_42 <=1 
C296: x9+x44-y9_44 <=1 
C297: x9+x45 <=1 
C298: x9+x48-y9_48 <=1 
C299: x9+x49 <=1 
C300: x9+x52 <=1 
C301: x9+x53 <=1 
C302: x9+x54 <=1 
C303: x9+x55 <=1 
C304: x9+x56 <=1 
C305: x9+x58-y9_58 <=1 
C306: x9+x59 <=1 
C307: x10+x12 <=1 
C308: x10+x14 <=1 
C309: x10+x16-y10_16 <=1 
C310: x10+x18 <=1 
C311: x10+x20-y10_20 <=1 
C312: x10+x21 <=1 
C313: x10+x24-y10_24 <=1 
C314: x10+x27-y10_27 <=1 
C315: x10+x30 <=1 
C316: x10+x33 <=1 
C317: x10+x34-y10_34 <=1 
C318: x10+x39-y10_39 <=1 
C319: x10+x40 <=1 
C320: x10+x41-y10_41 <=1 
C321: x10+x43-y10_43 <=1 
C322: x10+x44 <=1 
C323: x10+x46 <=1 
C324: x10+x51 <=1 
C325: x10+x52-y10_52 <=1 
C326: x10+x54-y10_54 <=1 
C327: x10+x55-y10_55 <=1 
C328: x10+x56-y10_56 <=1 
C329: x10+x57-y10_57 <=1 
C330: x10+x58-y10_58 <=1 
C331: x11+x13-y11_13 <=1 
C332: x11+x17-y11_17 <=1 
C333: x11+x19 <=1 
C334: x11+x20-y11_20 <=1 
C335: x11+x21-y11_21 <=1 
C336: x11+x22 <=1 
C337: x11+x25-y11_25 <=1 
C338: x11+x26 <=1 
C339: x11+x30 <=1 
C340: x11+x31-y11_31 <=1 
C341: x11+x32-y11_32 <=1 
C342: x11+x33 <=1 
C343: x11+x34-y11_34 <=1 
C344: x11+x36 <=1 
C345: x11+x38-y11_38 <=1 
C346: x11+x40-y11_40 <=1 
C347: x11+x44-y11_44 <=1 
C348: x11+x45-y11_45 <=1 
C349: x11+x49 <=1 
C350: x11+x50-y11_50 <=1 
C351: x11+x51 <=1 
C352: x11+x52 <=1 
C353: x11+x53 <=1 
C354: x11+x54 <=1 
C355: x11+x56 <=1 
C356: x11+x59 <=1 
C357: x12+x13 <=1 
C358: x12+x14-y12_14 <=1 
C359: x12+x15-y12_15 <=1 
C360: x12+x17-y12_17 <=1 
C361: x12+x21 <=1 
C362: x12+x22 <=1 
C363: x12+x23 <=1 
C364: x12+x24 <=1 
C365: x12+x28 <=1 
C366: x12+x29-y12_29 <=1 
C367: x12+x32 <=1 
C368: x12+x34 <=1 
C369: x12+x38 <=1 
C370: x12+x39-y12_39 <=1 
C371: x12+x41-y12_41 <=1 
C372: x12+x42-y12_42 <=1 
C373: x12+x43-y12_43 <=1 
C374: x12+x44-y12_44 <=1 
C375: x12+x45-y12_45 <=1 
C376: x12+x46-y12_46 <=1 
C377: x12+x49-y12_49 <=1 
C378: x12+x50-y12_50 <=1 
C379: x12+x51 <=1 
C380: x12+x53-y12_53 <=1 
C381: x12+x55-y12_55 <=1 
C382: x12+x57-y12_57 <=1 
C383: x12+x58-y12_58 <=1 
C384: x12+x59-y12_59 <=1 
C385: x13+x15-y13_15 <=1 
C386: x13+x18-y13_18 <=1 
C387: x13+x19 <=1 
C388: x13+x22-y13_22 <=1 
C389: x13+x23-y13_23 <=1 
C390: x13+x26-y13_26 <=1 
C391: x13+x28-y13_28 <=1 
C392: x13+x29 <=1 
C393: x13+x30 <=1 
C394: x13+x31 <=1 
C395: x13+x32 <=1 
C396: x13+x33 <=1 
C397: x13+x35-y13_35 <=1 
C398: x13+x37 <=1 
C399: x13+x39 <=1 
C400: x13+x40-y13_40 <=1 
C401: x13+x41-y13_41 <=1 
C402: x13+x42 <=1 
C403: x13+x43 <=1 
C404: x13+x44-y13_44 <=1 
C405: x13+x45 <=1 
C406: x13+x47-y13_47 <=1 
C407: x13+x48 <=1 
C408: x13+x49-y13_49 <=1 
C409: x13+x50-y13_50 <=1 
C410: x13+x53 <=1 
C411: x13+x55-y13_55 <=1 
C412: x13+x56-y13_56 <=1 
C413: x14+x15 <=1 
C414: x14+x16 <=1 
C415: x14+x17-y14_17 <=1 
C416: x14+x20 <=1 
C417: x14+x22-y14_22 <=1 
C418: x14+x23 <=1 
C419: x14+x24-y14_24 <=1 
C420: x14+x28-y14_28 <=1 
C421: x14+x30-y14_30 <=1 
C422: x14+x34-y14_34 <=1 
C423: x14+x35-y14_35 <=1 
C424: x14+x36-y14_36 <=1 
C425: x14+x37 <=1 
C426: x14+x39-y14_39 <=1 
C427: x14+x40 <=1 
C428: x14+x42-y14_42 <=1 
C429: x14+x43 <=1 
C430: x14+x44-y14_44 <=1 
C431: x14+x46-y14_46 <=1 
C432: x14+x47 <=1 
C433: x14+x48 <=1 
C434: x14+x49 <=1 
C435: x14+x51 <=1 
C436: x14+x52 <=1 
C437: x14+x54 <=1 
C438: x14+x56 <=1 
C439: x15+x17-y15_17 <=1 
C440: x15+x19-y15_19 <=1 
C441: x15+x20-y15_20 <=1 
C442: x15+x23-y15_23 <=1 
C443: x15+x24-y15_24 <=1 
C444: x15+x26-y15_26 <=1 
C445: x15+x27 <=1 
C446: x15+x29 <=1 
C447: x15+x30 <=1 
C448: x15+x35 <=1 
C449: x15+x39-y15_39 <=1 
C450: x15+x41 <=1 
C451: x15+x46-y15_46 <=1 
C452: x15+x48-y15_48 <=1 
C453: x15+x49-y15_49 <=1 
C454: x15+x51-y15_51 <=1 
C455: x15+x53 <=1 
C456: x15+x56-y15_56 <=1 
C457: x16+x18-y16_18 <=1 
C458: x16+x19-y16_19 <=1 
C459: x16+x20-y16_20 <=1 
C460: x16+x22-y16_22 <=1 
C461: x16+x26-y16_26 <=1 
C462: x16+x27 <=1 
C463: x16+x28 <=1 
C464: x16+x29 <=1 
C465: x16+x30 <=1 
C466: x16+x31 <=1 
C467: x16+x32 <=1 
C468: x16+x33-y16_33 <=1 
C469: x16+x35-y16_35 <=1 
C470: x16+x36 <=1 
C471: x16+x38 <=1 
C472: x16+x40 <=1 
C473: x16+x41-y16_41 <=1 
C474: x16+x44-y16_44 <=1 
C475: x16+x47 <=1 
C476: x16+x48-y16_48 <=1 
C477: x16+x49-y16_49 <=1 
C478: x16+x50-y16_50 <=1 
C479: x16+x56 <=1 
C480: x16+x57 <=1 
C481: x16+x58-y16_58 <=1 
C482: x16+x59-y16_59 <=1 
C483: x17+x18 <=1 
C484: x17+x21-y17_21 <=1 
C485: x17+x23 <=1 
C486: x17+x24-y17_24 <=1 
C487: x17+x25-y17_25 <=1 
C488: x17+x26-y17_26 <=1 
C489: x17+x27-y17_27 <=1 
C490: x17+x29 <=1 
C491: x17+x30 <=1 
C492: x17+x31 <=1 
C493: x17+x32 <=1 
C494: x17+x33 <=1 
C495: x17+x35 <=1 
C496: x17+x36 <=1 
C497: x17+x37-y17_37 <=1 
C498: x17+x39 <=1 
C499: x17+x41-y17_41 <=1 
C500: x17+x42-y17_42 <=1 
C501: x17+x43-y17_43 <=1 
C502: x17+x45 <=1 
C503: x17+x48 <=1 
C504: x17+x49-y17_49 <=1 
C505: x17+x50 <=1 
C506: x17+x51-y17_51 <=1 
C507: x17+x52-y17_52 <=1 
C508: x17+x54-y17_54 <=1 
C509: x17+x55 <=1 
C510: x17+x59 <=1 
C511: x18+x21 <=1 
C512: x18+x22 <=1 
C513: x18+x23 <=1 
C514: x18+x24 <=1 
C515: x18+x27 <=1 
C516: x18+x29-y18_29 <=1 
C517: x18+x30-y18_30 <=1 
C518: x18+x31 <=1 
C519: x18+x32 <=1 
C520: x18+x34-y18_34 <=1 
C521: x18+x35-y18_35 <=1 
C522: x18+x36-y18_36 <=1 
C523: x18+x37-y18_37 <=1 
C524: x18+x38-y18_38 <=1 
C525: x18+x39 <=1 
C526: x18+x40-y18_40 <=1 
C527: x18+x41-y18_41 <=1 
C528: x18+x42 <=1 
C529: x18+x43 <=1 
C530: x18+x44-y18_44 <=1 
C531: x18+x45-y18_45 <=1 
C532: x18+x46-y18_46 <=1 
C533: x18+x48-y18_48 <=1 
C534: x18+x49-y18_49 <=1 
C535: x18+x50 <=1 
C536: x18+x51-y18_51 <=1 
C537: x18+x53 <=1 
C538: x18+x55-y18_55 <=1 
C539: x18+x59 <=1 
C540: x19+x20 <=1 
C541: x19+x22 <=1 
C542: x19+x23-y19_23 <=1 
C543: x19+x25 <=1 
C544: x19+x26 <=1 
C545: x19+x27 <=1 
C546: x19+x28 <=1 
C547: x19+x29-y19_29 <=1 
C548: x19+x30-y19_30 <=1 
C549: x19+x31-y19_31 <=1 
C550: x19+x33 <=1 
C551: x19+x36 <=1 
C552: x19+x37-y19_37 <=1 
C553: x19+x38-y19_38 <=1 
C554: x19+x39 <=1 
C555: x19+x41 <=1 
C556: x19+x43-y19_43 <=1 
C557: x19+x44-y19_44 <=1 
C558: x19+x45-y19_45 <=1 
C559: x19+x46-y19_46 <=1 
C560: x19+x47 <=1 
C561: x19+x49 <=1 
C562: x19+x52 <=1 
C563: x19+x54 <=1 
C564: x19+x55-y19_55 <=1 
C565: x19+x56 <=1 
C566: x19+x57 <=1 
C567: x19+x59 <=1 
C568: x20+x23-y20_23 <=1 
C569: x20+x24 <=1 
C570: x20+x25-y20_25 <=1 
C571: x20+x26 <=1 
C572: x20+x28-y20_28 <=1 
C573: x20+x30 <=1 
C574: x20+x33-y20_33 <=1 
C575: x20+x36 <=1 
C576: x20+x37 <=1 
C577: x20+x38 <=1 
C578: x20+x39-y20_39 <=1 
C579: x20+x41 <=1 
C580: x20+x42-y20_42 <=1 
C581: x20+x45 <=1 
C582: x20+x50 <=1 
C583: x20+x53-y20_53 <=1 
C584: x20+x54 <=1 
C585: x20+x55-y20_55 <=1 
C586: x20+x56 <=1 
C587: x20+x57-y20_57 <=1 
C588: x20+x59 <=1 
C589: x21+x22 <=1 
C590: x21+x23 <=1 
C591: x21+x25 <=1 
C592: x21+x27-y21_27 <=1 
C593: x21+x28-y21_28 <=1 
C594: x21+x29-y21_29 <=1 
C595: x21+x31-y21_31 <=1 
C596: x21+x32-y21_32 <=1 
C597: x21+x33 <=1 
C598: x21+x34-y21_34 <=1 
C599: x21+x36 <=1 
C600: x21+x37 <=1 
C601: x21+x38-y21_38 <=1 
C602: x21+x39 <=1 
C603: x21+x40-y21_40 <=1 
C604: x21+x41 <=1 
C605: x21+x43 <=1 
C606: x21+x46 <=1 
C607: x21+x52 <=1 
C608: x21+x55 <=1 
C609: x21+x56 <=1 
C610: x21+x57-y21_57 <=1 
C611: x21+x58-y21_58 <=1 
C612: x22+x23 <=1 
C613: x22+x24 <=1 
C614: x22+x25 <=1 
C615: x22+x27 <=1 
C616: x22+x28-y22_28 <=1 
C617: x22+x31-y22_31 <=1 
C618: x22+x32-y22_32 <=1 
C619: x22+x33 <=1 
C620: x22+x34-y22_34 <=1 
C621: x22+x36 <=1 
C622: x22+x38 <=1 
C623: x22+x39-y22_39 <=1 
C624: x22+x44-y22_44 <=1 
C625: x22+x45-y22_45 <=1 
C626: x22+x46-y22_46 <=1 
C627: x22+x47-y22_47 <=1 
C628: x22+x50 <=1 
C629: x22+x52-y22_52 <=1 
C630: x22+x53-y22_53 <=1 
C631: x22+x55 <=1 
C632: x22+x56-y22_56 <=1 
C633: x22+x57-y22_57 <=1 
C634: x23+x25 <=1 
C635: x23+x26-y23_26 <=1 
C636: x23+x27 <=1 
C637: x23+x30 <=1 
C638: x23+x33 <=1 
C639: x23+x34-y23_34 <=1 
C640: x23+x35-y23_35 <=1 
C641: x23+x36 <=1 
C642: x23+x37 <=1 
C643: x23+x39 <=1 
C644: x23+x41 <=1 
C645: x23+x43 <=1 
C646: x23+x47 <=1 
C647: x23+x48-y23_48 <=1 
C648: x23+x51 <=1 
C649: x23+x53 <=1 
C650: x23+x54 <=1 
C651: x23+x55-y23_55 <=1 
C652: x23+x58 <=1 
C653: x23+x59-y23_59 <=1 
C654: x24+x29-y24_29 <=1 
C655: x24+x30-y24_30 <=1 
C656: x24+x31-y24_31 <=1 
C657: x24+x34-y24_34 <=1 
C658: x24+x35-y24_35 <=1 
C659: x24+x37 <=1 
C660: x24+x39 <=1 
C661: x24+x41-y24_41 <=1 
C662: x24+x42-y24_42 <=1 
C663: x24+x47 <=1 
C664: x24+x49 <=1 
C665: x24+x51 <=1 
C666: x24+x53-y24_53 <=1 
C667: x24+x56-y24_56 <=1 
C668: x24+x57 <=1 
C669: x24+x58 <=1 
C670: x24+x59-y24_59 <=1 
C671: x25+x27-y25_27 <=1 
C672: x25+x30-y25_30 <=1 
C673: x25+x31 <=1 
C674: x25+x32-y25_32 <=1 
C675: x25+x33-y25_33 <=1 
C676: x25+x34-y25_34 <=1 
C677: x25+x38-y25_38 <=1 
C678: x25+x39-y25_39 <=1 
C679: x25+x41 <=1 
C680: x25+x44 <=1 
C681: x25+x45 <=1 
C682: x25+x48 <=1 
C683: x25+x50 <=1 
C684: x25+x51 <=1 
C685: x25+x52 <=1 
C686: x25+x53 <=1 
C687: x25+x56-y25_56 <=1 
C688: x25+x57 <=1 
C689: x26+x27 <=1 
C690: x26+x29 <=1 
C691: x26+x30-y26_30 <=1 
C692: x26+x31-y26_31 <=1 
C693: x26+x32 <=1 
C694: x26+x33 <=1 
C695: x26+x34 <=1 
C696: x26+x35-y26_35 <=1 
C697: x26+x38-y26_38 <=1 
C698: x26+x39 <=1 
C699: x26+x40 <=1 
C700: x26+x42-y26_42 <=1 
C701: x26+x43 <=1 
C702: x26+x45-y26_45 <=1 
C703: x26+x47-y26_47 <=1 
C704: x26+x53-y26_53 <=1 
C705: x26+x54 <=1 
C706: x26+x55-y26_55 <=1 
C707: x26+x57 <=1 
C708: x26+x59 <=1 
C709: x27+x28-y27_28 <=1 
C710: x27+x29-y27_29 <=1 
C711: x27+x32 <=1 
C712: x27+x33-y27_33 <=1 
C713: x27+x34-y27_34 <=1 
C714: x27+x35 <=1 
C715: x27+x37-y27_37 <=1 
C716: x27+x39-y27_39 <=1 
C717: x27+x43 <=1 
C718: x27+x45-y27_45 <=1 
C719: x27+x47 <=1 
C720: x27+x48 <=1 
C721: x27+x49-y27_49 <=1 
C722: x27+x50-y27_50 <=1 
C723: x27+x51 <=1 
C724: x27+x52 <=1 
C725: x27+x55 <=1 
C726: x27+x56-y27_56 <=1 
C727: x27+x58 <=1 
C728: x27+x59 <=1 
C729: x28+x29 <=1 
C730: x28+x30-y28_30 <=1 
C731: x28+x31-y28_31 <=1 
C732: x28+x34-y28_34 <=1 
C733: x28+x36-y28_36 <=1 
C734: x28+x37 <=1 
C735: x28+x38-y28_38 <=1 
C736: x28+x39 <=1 
C737: x28+x41-y28_41 <=1 
C738: x28+x43-y28_43 <=1 
C739: x28+x44 <=1 
C740: x28+x45 <=1 
C741: x28+x48 <=1 
C742: x28+x50-y28_50 <=1 
C743: x28+x51 <=1 
C744: x28+x53-y28_53 <=1 
C745: x28+x56 <=1 
C746: x28+x59-y28_59 <=1 
C747: x29+x35-y29_35 <=1 
C748: x29+x36-y29_36 <=1 
C749: x29+x37 <=1 
C750: x29+x38-y29_38 <=1 
C751: x29+x39 <=1 
C752: x29+x41-y29_41 <=1 
C753: x29+x42-y29_42 <=1 
C754: x29+x46-y29_46 <=1 
C755: x29+x47 <=1 
C756: x29+x48 <=1 
C757: x29+x49 <=1 
C758: x29+x50-y29_50 <=1 
C759: x29+x51-y29_51 <=1 
C760: x29+x53-y29_53 <=1 
C761: x29+x55-y29_55 <=1 
C762: x29+x56 <=1 
C763: x29+x57 <=1 
C764: x30+x31 <=1 
C765: x30+x32-y30_32 <=1 
C766: x30+x33-y30_33 <=1 
C767: x30+x35 <=1 
C768: x30+x36-y30_36 <=1 
C769: x30+x37-y30_37 <=1 
C770: x30+x38 <=1 
C771: x30+x41-y30_41 <=1 
C772: x30+x42 <=1 
C773: x30+x43-y30_43 <=1 
C774: x30+x45 <=1 
C775: x30+x46 <=1 
C776: x30+x49-y30_49 <=1 
C777: x30+x50 <=1 
C778: x30+x51 <=1 
C779: x30+x52 <=1 
C780: x30+x54 <=1 
C781: x30+x55-y30_55 <=1 
C782: x30+x56-y30_56 <=1 
C783: x30+x57 <=1 
C784: x30+x58-y30_58 <=1 
C785: x30+x59-y30_59 <=1 
C786: x31+x32-y31_32 <=1 
C787: x31+x33 <=1 
C788: x31+x34 <=1 
C789: x31+x35-y31_35 <=1 
C790: x31+x36-y31_36 <=1 
C791: x31+x37 <=1 
C792: x31+x39-y31_39 <=1 
C793: x31+x40 <=1 
C794: x31+x42 <=1 
C795: x31+x44-y31_44 <=1 
C796: x31+x45 <=1 
C797: x31+x48-y31_48 <=1 
C798: x31+x50 <=1 
C799: x31+x52-y31_52 <=1 
C800: x31+x53-y31_53 <=1 
C801: x31+x54 <=1 
C802: x31+x55 <=1 
C803: x31+x56 <=1 
C804: x31+x57-y31_57 <=1 
C805: x31+x59-y31_59 <=1 
C806: x32+x33-y32_33 <=1 
C807: x32+x35 <=1 
C808: x32+x36 <=1 
C809: x32+x37-y32_37 <=1 
C810: x32+x38 <=1 
C811: x32+x39-y32_39 <=1 
C812: x32+x40-y32_40 <=1 
C813: x32+x41 <=1 
C814: x32+x42 <=1 
C815: x32+x43-y32_43 <=1 
C816: x32+x45 <=1 
C817: x32+x46 <=1 
C818: x32+x47 <=1 
C819: x32+x48-y32_48 <=1 
C820: x32+x49 <=1 
C821: x32+x50-y32_50 <=1 
C822: x32+x51-y32_51 <=1 
C823: x32+x52 <=1 
C824: x32+x53-y32_53 <=1 
C825: x32+x54-y32_54 <=1 
C826: x32+x55-y32_55 <=1 
C827: x32+x56-y32_56 <=1 
C828: x32+x57 <=1 
C829: x32+x58-y32_58 <=1 
C830: x32+x59 <=1 
C831: x33+x34-y33_34 <=1 
C832: x33+x38 <=1 
C833: x33+x39 <=1 
C834: x33+x41 <=1 
C835: x33+x43 <=1 
C836: x33+x44 <=1 
C837: x33+x45-y33_45 <=1 
C838: x33+x48 <=1 
C839: x33+x49-y33_49 <=1 
C840: x33+x51-y33_51 <=1 
C841: x33+x55 <=1 
C842: x33+x56 <=1 
C843: x33+x57 <=1 
C844: x33+x58-y33_58 <=1 
C845: x33+x59 <=1 
C846: x34+x35 <=1 
C847: x34+x37 <=1 
C848: x34+x38 <=1 
C849: x34+x39-y34_39 <=1 
C850: x34+x40 <=1 
C851: x34+x41 <=1 
C852: x34+x43-y34_43 <=1 
C853: x34+x44-y34_44 <=1 
C854: x34+x45 <=1 
C855: x34+x47-y34_47 <=1 
C856: x34+x48-y34_48 <=1 
C857: x34+x50-y34_50 <=1 
C858: x34+x52-y34_52 <=1 
C859: x34+x53 <=1 
C860: x34+x54-y34_54 <=1 
C861: x34+x55-y34_55 <=1 
C862: x34+x57-y34_57 <=1 
C863: x34+x59 <=1 
C864: x35+x37 <=1 
C865: x35+x39 <=1 
C866: x35+x41-y35_41 <=1 
C867: x35+x42 <=1 
C868: x35+x43 <=1 
C869: x35+x45-y35_45 <=1 
C870: x35+x46-y35_46 <=1 
C871: x35+x47-y35_47 <=1 
C872: x35+x48-y35_48 <=1 
C873: x35+x49 <=1 
C874: x35+x50-y35_50 <=1 
C875: x35+x51-y35_51 <=1 
C876: x35+x52 <=1 
C877: x35+x53 <=1 
C878: x35+x55 <=1 
C879: x35+x58-y35_58 <=1 
C880: x35+x59 <=1 
C881: x36+x38 <=1 
C882: x36+x40-y36_40 <=1 
C883: x36+x41-y36_41 <=1 
C884: x36+x44-y36_44 <=1 
C885: x36+x45 <=1 
C886: x36+x49-y36_49 <=1 
C887: x36+x50 <=1 
C888: x36+x52-y36_52 <=1 
C889: x36+x53 <=1 
C890: x36+x56 <=1 
C891: x36+x59 <=1 
C892: x37+x38 <=1 
C893: x37+x41 <=1 
C894: x37+x45 <=1 
C895: x37+x46-y37_46 <=1 
C896: x37+x48-y37_48 <=1 
C897: x37+x51 <=1 
C898: x37+x52 <=1 
C899: x37+x53 <=1 
C900: x37+x54 <=1 
C901: x37+x55-y37_55 <=1 
C902: x37+x56-y37_56 <=1 
C903: x37+x58 <=1 
C904: x37+x59-y37_59 <=1 
C905: x38+x40 <=1 
C906: x38+x44 <=1 
C907: x38+x46-y38_46 <=1 
C908: x38+x47 <=1 
C909: x38+x49-y38_49 <=1 
C910: x38+x50-y38_50 <=1 
C911: x38+x51-y38_51 <=1 
C912: x38+x54-y38_54 <=1 
C913: x38+x58 <=1 
C914: x39+x40-y39_40 <=1 
C915: x39+x41 <=1 
C916: x39+x43-y39_43 <=1 
C917: x39+x45 <=1 
C918: x39+x48-y39_48 <=1 
C919: x39+x49 <=1 
C920: x39+x50-y39_50 <=1 
C921: x39+x51-y39_51 <=1 
C922: x39+x53 <=1 
C923: x39+x55-y39_55 <=1 
C924: x40+x41-y40_41 <=1 
C925: x40+x43-y40_43 <=1 
C926: x40+x44 <=1 
C927: x40+x45 <=1 
C928: x40+x46-y40_46 <=1 
C929: x40+x47-y40_47 <=1 
C930: x40+x50-y40_50 <=1 
C931: x40+x52 <=1 
C932: x40+x55 <=1 
C933: x40+x56 <=1 
C934: x40+x57 <=1 
C935: x40+x58-y40_58 <=1 
C936: x40+x59-y40_59 <=1 
C937: x41+x44-y41_44 <=1 
C938: x41+x45 <=1 
C939: x41+x46 <=1 
C940: x41+x47 <=1 
C941: x41+x49 <=1 
C942: x41+x50 <=1 
C943: x41+x52 <=1 
C944: x41+x53 <=1 
C945: x41+x57 <=1 
C946: x41+x58-y41_58 <=1 
C947: x41+x59-y41_59 <=1 
C948: x42+x45-y42_45 <=1 
C949: x42+x46-y42_46 <=1 
C950: x42+x47 <=1 
C951: x42+x48-y42_48 <=1 
C952: x42+x49 <=1 
C953: x42+x54-y42_54 <=1 
C954: x42+x55-y42_55 <=1 
C955: x42+x57 <=1 
C956: x42+x58 <=1 
C957: x42+x59-y42_59 <=1 
C958: x43+x45-y43_45 <=1 
C959: x43+x46-y43_46 <=1 
C960: x43+x47 <=1 
C961: x43+x48-y43_48 <=1 
C962: x43+x49-y43_49 <=1 
C963: x43+x51 <=1 
C964: x43+x53 <=1 
C965: x43+x54 <=1 
C966: x43+x55-y43_55 <=1 
C967: x43+x56 <=1 
C968: x43+x58-y43_58 <=1 
C969: x44+x45 <=1 
C970: x44+x47 <=1 
C971: x44+x51 <=1 
C972: x44+x52 <=1 
C973: x44+x53 <=1 
C974: x44+x55 <=1 
C975: x44+x56-y44_56 <=1 
C976: x45+x47 <=1 
C977: x45+x48 <=1 
C978: x45+x49 <=1 
C979: x45+x52 <=1 
C980: x45+x53-y45_53 <=1 
C981: x45+x54-y45_54 <=1 
C982: x45+x58 <=1 
C983: x46+x48-y46_48 <=1 
C984: x46+x49-y46_49 <=1 
C985: x46+x50 <=1 
C986: x46+x51 <=1 
C987: x46+x57-y46_57 <=1 
C988: x47+x48-y47_48 <=1 
C989: x47+x50-y47_50 <=1 
C990: x47+x53-y47_53 <=1 
C991: x47+x55-y47_55 <=1 
C992: x47+x56-y47_56 <=1 
C993: x47+x57 <=1 
C994: x47+x58-y47_58 <=1 
C995: x47+x59 <=1 
C996: x48+x49-y48_49 <=1 
C997: x48+x50-y48_50 <=1 
C998: x48+x51 <=1 
C999: x48+x53-y48_53 <=1 
C1000: x48+x56 <=1 
C1001: x48+x58 <=1 
C1002: x49+x50 <=1 
C1003: x49+x51-y49_51 <=1 
C1004: x49+x53 <=1 
C1005: x49+x54 <=1 
C1006: x49+x57 <=1 
C1007: x49+x58-y49_58 <=1 
C1008: x49+x59 <=1 
C1009: x50+x52-y50_52 <=1 
C1010: x50+x53 <=1 
C1011: x50+x55-y50_55 <=1 
C1012: x50+x56 <=1 
C1013: x50+x57 <=1 
C1014: x50+x59-y50_59 <=1 
C1015: x51+x53 <=1 
C1016: x51+x54-y51_54 <=1 
C1017: x51+x55-y51_55 <=1 
C1018: x51+x57 <=1 
C1019: x51+x58 <=1 
C1020: x52+x55 <=1 
C1021: x52+x57 <=1 
C1022: x52+x58-y52_58 <=1 
C1023: x52+x59-y52_59 <=1 
C1024: x53+x54-y53_54 <=1 
C1025: x53+x55-y53_55 <=1 
C1026: x53+x57-y53_57 <=1 
C1027: x53+x58 <=1 
C1028: x54+x55 <=1 
C1029: x54+x57-y54_57 <=1 
C1030: x54+x59 <=1 
C1031: x55+x56 <=1 
C1032: x55+x57 <=1 
C1033: x55+x59-y55_59 <=1 
C1034: x56+x57-y56_57 <=1 
C1035: x56+x58 <=1 
C1036: x56+x59 <=1 
C1037: x58+x59-y58_59 <=1 

binary
x0
x1
x2
x3
x4
x5
x6
x7
x8
x9
x10
x11
x12
x13
x14
x15
x16
x17
x18
x19
x20
x21
x22
x23
x24
x25
x26
x27
x28
x29
x30
x31
x32
x33
x34
x35
x36
x37
x38
x39
x40
x41
x42
x43
x44
x45
x46
x47
x48
x49
x50
x51
x52
x53
x54
x55
x56
x57
x58
x59
