problem_generation/data/GISP/train/er_n=60_m=1037_p=0.60_SET2_setparam=100.00_alpha=0.50_405.sol
objective value:                                 1275
x2                                                  1 	(obj:100)
x7                                                  1 	(obj:100)
x13                                                 1 	(obj:100)
x15                                                 1 	(obj:100)
x25                                                 1 	(obj:100)
x26                                                 1 	(obj:100)
x28                                                 1 	(obj:100)
x36                                                 1 	(obj:100)
x46                                                 1 	(obj:100)
x47                                                 1 	(obj:100)
x49                                                 1 	(obj:100)
x55                                                 1 	(obj:100)
x58                                                 1 	(obj:100)
y2_13                                               1 	(obj:-1)
y2_49                                               1 	(obj:-1)
y13_55                                              1 	(obj:-1)
y2_26                                               1 	(obj:-1)
y2_7                                                1 	(obj:-1)
y13_49                                              1 	(obj:-1)
y13_26                                              1 	(obj:-1)
y46_49                                              1 	(obj:-1)
y26_47                                              1 	(obj:-1)
y7_15                                               1 	(obj:-1)
y47_55                                              1 	(obj:-1)
y2_25                                               1 	(obj:-1)
y2_47                                               1 	(obj:-1)
y28_36                                              1 	(obj:-1)
y36_49                                              1 	(obj:-1)
y47_58                                              1 	(obj:-1)
y2_28                                               1 	(obj:-1)
y13_47                                              1 	(obj:-1)
y49_58                                              1 	(obj:-1)
y13_15                                              1 	(obj:-1)
y13_28                                              1 	(obj:-1)
y15_46                                              1 	(obj:-1)
y26_55                                              1 	(obj:-1)
y15_49                                              1 	(obj:-1)
y15_26                                              1 	(obj:-1)
